solution status: optimal solution found
objective value:                     137785.499999987
d11(0,0)                                            1 	(obj:0)
d11(1,1)                                            1 	(obj:0)
d11(1,2)                                            1 	(obj:0)
d11(2,4)                                            1 	(obj:0)
d11(2,5)                                            1 	(obj:0)
d11(2,6)                                            1 	(obj:0)
d11(2,7)                                            1 	(obj:0)
d11(2,8)                                            1 	(obj:0)
d11(2,9)                                            1 	(obj:0)
d11(2,10)                                           1 	(obj:0)
d11(2,11)                                           1 	(obj:0)
d11(2,12)                                           1 	(obj:0)
d11(3,13)                                           1 	(obj:0)
d11(3,14)                                           1 	(obj:0)
d11(3,15)                                           1 	(obj:0)
d11(3,16)                                           1 	(obj:0)
d11(3,17)                                           1 	(obj:0)
d11(3,19)                                           1 	(obj:0)
d11(3,20)                                           1 	(obj:0)
d11(3,21)                                           1 	(obj:0)
d11(3,22)                                           1 	(obj:0)
d11(3,23)                                           1 	(obj:0)
d11(3,24)                                           1 	(obj:0)
d11(3,25)                                           1 	(obj:0)
d11(3,26)                                           1 	(obj:0)
d11(3,27)                                           1 	(obj:0)
d11(3,28)                                           1 	(obj:0)
d11(3,29)                                           1 	(obj:0)
d11(3,30)                                           1 	(obj:0)
d11(3,31)                                           1 	(obj:0)
d11(3,32)                                           1 	(obj:0)
d11(3,33)                                           1 	(obj:0)
d11(3,34)                                           1 	(obj:0)
d11(3,35)                                           1 	(obj:0)
d11(3,36)                                           1 	(obj:0)
d11(3,37)                                           1 	(obj:0)
d11(3,38)                                           1 	(obj:0)
d11(3,39)                                           1 	(obj:0)
d21(3,13)                                           1 	(obj:0)
d21(3,14)                                           1 	(obj:0)
d21(3,15)                                           1 	(obj:0)
d21(3,16)                                           1 	(obj:0)
d21(3,17)                                           1 	(obj:0)
d21(3,19)                                           1 	(obj:0)
d21(3,22)                                           1 	(obj:0)
d21(3,23)                                           1 	(obj:0)
d21(3,25)                                           1 	(obj:0)
d21(3,31)                                           1 	(obj:0)
STE(1,1)                             8120.76436339868 	(obj:0)
STE(0,0)                                        11025 	(obj:0)
STE(1,2)                             9117.53036673199 	(obj:0)
STE(1,3)                                        10143 	(obj:0)
STE(2,4)                             4515.92019666678 	(obj:0)
STE(2,5)                             5512.68620000005 	(obj:0)
STE(2,6)                             6730.13840333319 	(obj:0)
STE(2,7)                             5512.68620000005 	(obj:0)
STE(2,8)                             6509.45220333331 	(obj:0)
STE(2,9)                             7726.90440666669 	(obj:0)
STE(2,10)                            6538.15583326801 	(obj:0)
STE(2,11)                            7534.92183660127 	(obj:0)
STE(2,12)                            8752.37403993465 	(obj:0)
STE(3,13)                            1419.70198999995 	(obj:0)
STE(3,14)                            2416.46799333324 	(obj:0)
STE(3,15)                            3633.92019666654 	(obj:0)
STE(3,16)                            2416.46799333324 	(obj:0)
STE(3,17)                            3413.23399666653 	(obj:0)
STE(3,18)                            4630.68620000005 	(obj:0)
STE(3,19)                            3633.92019666655 	(obj:0)
STE(3,20)                            4630.68619999984 	(obj:0)
STE(3,21)                            5848.13840333319 	(obj:0)
STE(3,22)                            2416.46799333326 	(obj:0)
STE(3,23)                            3413.23399666655 	(obj:0)
STE(3,24)                            4630.68619999991 	(obj:0)
STE(3,25)                            3413.23399666655 	(obj:0)
STE(3,26)                                        4410 	(obj:0)
STE(3,27)                            5627.45220333321 	(obj:0)
STE(3,28)                            4630.68619999993 	(obj:0)
STE(3,29)                            5627.45220333322 	(obj:0)
STE(3,30)                            6844.90440666669 	(obj:0)
STE(3,31)                            3441.93762660127 	(obj:0)
STE(3,32)                            4438.70362993456 	(obj:0)
STE(3,33)                            5656.15583326801 	(obj:0)
STE(3,34)                            4438.70362993456 	(obj:0)
STE(3,35)                            5435.46963326785 	(obj:0)
STE(3,36)                            6652.92183660127 	(obj:0)
STE(3,37)                            5656.15583326794 	(obj:0)
STE(3,38)                            6652.92183660123 	(obj:0)
STE(3,39)                            7870.37403993459 	(obj:0)
y1(3,23)                             1095.70698300005 	(obj:0)
y1(3,25)                             1992.79638600001 	(obj:0)
y1(3,26)                             1095.70698300005 	(obj:0)
y1(3,28)                             1992.79638600001 	(obj:0)
y1(3,29)                             1095.70698300005 	(obj:0)
y1(3,31)                             1992.79638600001 	(obj:0)
y1(3,32)                             1095.70698300005 	(obj:0)
y1(3,34)                             1992.79638600001 	(obj:0)
y1(3,35)                             1095.70698300005 	(obj:0)
y1(3,37)                             1992.79638600001 	(obj:0)
y1(3,38)                             1095.70698300005 	(obj:0)
BG(3)                                 1204.5629966753 	(obj:10)
AVE(1)                               3199.95851117552 	(obj:0)
AVE(2)                               3265.15049132519 	(obj:0)
AVE(3)                               3291.35535332476 	(obj:0)
WG(1)                                3199.95851117552 	(obj:10)
WG(2)                                3265.15049132519 	(obj:10)
WG(3)                                3291.35535332476 	(obj:10)
BG(1)                                1119.64931529507 	(obj:10)
BG(2)                                1697.87333220403 	(obj:10)
y1(1,1)                              1820.01207294119 	(obj:0)
y1(1,2)                              922.922669941207 	(obj:0)
y1(2,4)                              2450.55975005868 	(obj:0)
y1(2,5)                              1553.47034705871 	(obj:0)
y1(2,6)                               457.76336405879 	(obj:0)
y1(2,7)                              2450.55975005868 	(obj:0)
y1(2,8)                              1553.47034705871 	(obj:0)
y1(2,9)                              457.763364058674 	(obj:0)
y1(2,10)                             2450.55975005868 	(obj:0)
y1(2,11)                             1553.47034705871 	(obj:0)
y1(2,12)                             457.763364058674 	(obj:0)
y1(3,13)                             1992.79638600001 	(obj:0)
y1(3,14)                             1095.70698300005 	(obj:0)
y1(3,16)                             1992.79638600001 	(obj:0)
y1(3,17)                             1095.70698300005 	(obj:0)
y1(3,19)                             1992.79638600001 	(obj:0)
y1(3,20)                             1095.70698300005 	(obj:0)
y1(3,22)                             1992.79638600001 	(obj:0)
